NAME : amtsp
TYPE : ATSP
DIMENSION : 7
EDGE_WEIGHT_TYPE : EXPLICIT
EDGE_WEIGHT_FORMAT : FULL_MATRIX
EDGE_WEIGHT_SECTION
100000 -100000 100000 100000 100000 100000 100000 
100000 100000 -49 1070 565 530 1559 
0 0 100000 506 580 773 1766 
0 0 506 100000 -328 -97 1675 
0 0 580 -328 100000 -268 415 
0 0 773 -97 -268 100000 182 
0 0 1766 1675 415 182 100000 
